\ENCODING=ISO-8859-1
\Problem name: ilog.cplex

Maximize
 obj: 504 x(0)#0 + 800 x(1)#1 + 801 x(2)#2 + 1049 x(3)#3 + 588 x(4)#4
      + 787 x(5)#5 + 849 x(6)#6 + 682 x(7)#7 + 731 x(8)#8 + 302 x(9)#9
      + 930 x(10)#10 + 653 x(11)#11 + 337 x(12)#12 + 742 x(13)#13
      + 1080 x(14)#14 + 709 x(15)#15 + 593 x(16)#16 + 816 x(17)#17
      + 1009 x(18)#18 + 811 x(19)#19 + 1132 x(20)#20 + 894 x(21)#21
      + 987 x(22)#22 + 768 x(23)#23 + 660 x(24)#24 + 498 x(25)#25
      + 670 x(26)#26 + 1019 x(27)#27 + 679 x(28)#28 + 767 x(29)#29
      + 589 x(30)#30 + 722 x(31)#31 + 944 x(32)#32 + 1076 x(33)#33
      + 1019 x(34)#34 + 382 x(35)#35 + 685 x(36)#36 + 652 x(37)#37
      + 686 x(38)#38 + 705 x(39)#39 + 1009 x(40)#40 + 858 x(41)#41
      + 807 x(42)#42 + 1011 x(43)#43 + 626 x(44)#44 + 449 x(45)#45
      + 714 x(46)#46 + 428 x(47)#47 + 819 x(48)#48 + 567 x(49)#49
      + 716 x(50)#50 + 935 x(51)#51 + 662 x(52)#52 + 425 x(53)#53
      + 805 x(54)#54 + 802 x(55)#55 + 936 x(56)#56 + 840 x(57)#57
      + 895 x(58)#58 + 856 x(59)#59 + 1036 x(60)#60 + 889 x(61)#61
      + 1177 x(62)#62 + 910 x(63)#63 + 888 x(64)#64 + 801 x(65)#65
      + 1038 x(66)#66 + 628 x(67)#67 + 786 x(68)#68 + 485 x(69)#69
      + 895 x(70)#70 + 459 x(71)#71 + 599 x(72)#72 + 858 x(73)#73
      + 313 x(74)#74 + 739 x(75)#75 + 836 x(76)#76 + 463 x(77)#77
      + 846 x(78)#78 + 425 x(79)#79 + 857 x(80)#80 + 994 x(81)#81
      + 543 x(82)#82 + 1176 x(83)#83 + 626 x(84)#84 + 567 x(85)#85
      + 264 x(86)#86 + 912 x(87)#87 + 630 x(88)#88 + 629 x(89)#89
      + 810 x(90)#90 + 606 x(91)#91 + 599 x(92)#92 + 779 x(93)#93
      + 579 x(94)#94 + 1006 x(95)#95 + 810 x(96)#96 + 671 x(97)#97
      + 945 x(98)#98 + 749 x(99)#99
Subject To
 c1: 5 x(0)#0 + 638 x(1)#1 + 952 x(2)#2 + 501 x(3)#3 + 926 x(4)#4 + 267 x(5)#5
     + 878 x(6)#6 + 459 x(7)#7 + 826 x(8)#8 + 99 x(9)#9 + 201 x(10)#10
     + 870 x(11)#11 + 468 x(12)#12 + 782 x(13)#13 + 219 x(14)#14 + 363 x(15)#15
     + 213 x(16)#16 + 969 x(17)#17 + 925 x(18)#18 + 848 x(19)#19 + 905 x(20)#20
     + 71 x(21)#21 + 827 x(22)#22 + 449 x(23)#23 + 504 x(24)#24 + 190 x(25)#25
     + 697 x(26)#26 + 984 x(27)#27 + 702 x(28)#28 + 729 x(29)#29 + 424 x(30)#30
     + 85 x(31)#31 + 306 x(32)#32 + 881 x(33)#33 + 518 x(34)#34 + 91 x(35)#35
     + 647 x(36)#36 + 698 x(37)#37 + 353 x(38)#38 + 487 x(39)#39 + 924 x(40)#40
     + 566 x(41)#41 + 866 x(42)#42 + 566 x(43)#43 + 307 x(44)#44 + 564 x(45)#45
     + 105 x(46)#46 + 405 x(47)#47 + 772 x(48)#48 + 62 x(49)#49 + 20 x(50)#50
     + 824 x(51)#51 + 551 x(52)#52 + 894 x(53)#53 + 679 x(54)#54 + 640 x(55)#55
     + 916 x(56)#56 + 974 x(57)#57 + 370 x(58)#58 + 741 x(59)#59 + 347 x(60)#60
     + 337 x(61)#61 + 613 x(62)#62 + 302 x(63)#63 + 682 x(64)#64 + 157 x(65)#65
     + 708 x(66)#66 + 275 x(67)#67 + 393 x(68)#68 + 470 x(69)#69 + 763 x(70)#70
     + 63 x(71)#71 + 311 x(72)#72 + 257 x(73)#73 + 40 x(74)#74 + 486 x(75)#75
     + 587 x(76)#76 + 773 x(77)#77 + 603 x(78)#78 + 66 x(79)#79 + 218 x(80)#80
     + 977 x(81)#81 + 295 x(82)#82 + 590 x(83)#83 + 603 x(84)#84 + 285 x(85)#85
     + 277 x(86)#86 + 447 x(87)#87 + 844 x(88)#88 + 802 x(89)#89 + 173 x(90)#90
     + 157 x(91)#91 + 98 x(92)#92 + 856 x(93)#93 + 243 x(94)#94 + 821 x(95)#95
     + 491 x(96)#96 + 628 x(97)#97 + 130 x(98)#98 + 748 x(99)#99 <= 25810
 c2: 100 x(0)#0 + 606 x(1)#1 + 436 x(2)#2 + 611 x(3)#3 + 290 x(4)#4
     + 667 x(5)#5 + 805 x(6)#6 + 77 x(7)#7 + 625 x(8)#8 + 56 x(9)#9
     + 883 x(10)#10 + 577 x(11)#11 + 70 x(12)#12 + 657 x(13)#13 + 806 x(14)#14
     + 224 x(15)#15 + 500 x(16)#16 + 92 x(17)#17 + 207 x(18)#18 + 254 x(19)#19
     + 368 x(20)#20 + 801 x(21)#21 + 249 x(22)#22 + 985 x(23)#23 + 94 x(24)#24
     + 142 x(25)#25 + 122 x(26)#26 + 754 x(27)#27 + 415 x(28)#28 + 484 x(29)#29
     + 824 x(30)#30 + 206 x(31)#31 + 945 x(32)#32 + 779 x(33)#33 + 676 x(34)#34
     + 11 x(35)#35 + 413 x(36)#36 + 326 x(37)#37 + 600 x(38)#38 + 859 x(39)#39
     + 375 x(40)#40 + 942 x(41)#41 + 87 x(42)#42 + 931 x(43)#43 + 96 x(44)#44
     + 543 x(45)#45 + 505 x(46)#46 + 880 x(47)#47 + 83 x(48)#48 + 509 x(49)#49
     + 259 x(50)#50 + 438 x(51)#51 + 49 x(52)#52 + 364 x(53)#53 + 336 x(54)#54
     + 743 x(55)#55 + 100 x(56)#56 + 162 x(57)#57 + 730 x(58)#58 + 902 x(59)#59
     + 614 x(60)#60 + 646 x(61)#61 + 886 x(62)#62 + 721 x(63)#63 + 200 x(64)#64
     + 541 x(65)#65 + 531 x(66)#66 + 64 x(67)#67 + 553 x(68)#68 + 24 x(69)#69
     + 224 x(70)#70 + 192 x(71)#71 + 189 x(72)#72 + 606 x(73)#73 + 336 x(74)#74
     + 734 x(75)#75 + 385 x(76)#76 + 35 x(77)#77 + 400 x(78)#78 + 13 x(79)#79
     + 359 x(80)#80 + 910 x(81)#81 + 202 x(82)#82 + 989 x(83)#83 + 534 x(84)#84
     + 683 x(85)#85 + 528 x(86)#86 + 865 x(87)#87 + 823 x(88)#88 + 533 x(89)#89
     + 826 x(90)#90 + 519 x(91)#91 + 335 x(92)#92 + 833 x(93)#93 + 772 x(94)#94
     + 902 x(95)#95 + 839 x(96)#96 + 19 x(97)#97 + 256 x(98)#98 + 561 x(99)#99
     <= 23906
 c3: 830 x(0)#0 + 49 x(1)#1 + 71 x(2)#2 + 741 x(3)#3 + 353 x(4)#4 + 338 x(5)#5
     + 495 x(6)#6 + 356 x(7)#7 + 344 x(8)#8 + 868 x(9)#9 + 394 x(10)#10
     + 151 x(11)#11 + 736 x(12)#12 + 551 x(13)#13 + 548 x(14)#14 + 429 x(15)#15
     + 720 x(16)#16 + 909 x(17)#17 + 515 x(18)#18 + 14 x(19)#19 + 900 x(20)#20
     + 215 x(21)#21 + 612 x(22)#22 + 15 x(23)#23 + 611 x(24)#24 + 726 x(25)#25
     + 298 x(26)#26 + 427 x(27)#27 + 473 x(28)#28 + 62 x(29)#29 + 85 x(30)#30
     + 910 x(31)#31 + 451 x(32)#32 + 955 x(33)#33 + 891 x(34)#34 + 241 x(35)#35
     + 326 x(36)#36 + 72 x(37)#37 + 634 x(38)#38 + 83 x(39)#39 + 862 x(40)#40
     + 739 x(41)#41 + 985 x(42)#42 + 126 x(43)#43 + 559 x(44)#44 + 34 x(45)#45
     + 785 x(46)#46 + 429 x(47)#47 + 822 x(48)#48 + 228 x(49)#49 + 343 x(50)#50
     + 231 x(51)#51 + 837 x(52)#52 + 119 x(53)#53 + 31 x(54)#54 + 557 x(55)#55
     + 720 x(56)#56 + 37 x(57)#57 + 639 x(58)#58 + 586 x(59)#59 + 643 x(60)#60
     + 94 x(61)#61 + 993 x(62)#62 + 815 x(63)#63 + 640 x(64)#64 + 20 x(65)#65
     + 262 x(66)#66 + 500 x(67)#67 + 194 x(68)#68 + 392 x(69)#69 + 802 x(70)#70
     + 125 x(71)#71 + 146 x(72)#72 + 840 x(73)#73 + 260 x(74)#74 + 379 x(75)#75
     + 572 x(76)#76 + 605 x(77)#77 + 842 x(78)#78 + 350 x(79)#79 + 72 x(80)#80
     + 317 x(81)#81 + 422 x(82)#82 + 858 x(83)#83 + 842 x(84)#84 + 502 x(85)#85
     + 2 x(86)#86 + 929 x(87)#87 + 33 x(88)#88 + 742 x(89)#89 + 797 x(90)#90
     + 666 x(91)#91 + 831 x(92)#92 + 418 x(93)#93 + 163 x(94)#94 + 828 x(95)#95
     + 406 x(96)#96 + 860 x(97)#97 + 886 x(98)#98 + 166 x(99)#99 <= 24141
 c4: 285 x(0)#0 + 459 x(1)#1 + 23 x(2)#2 + 914 x(3)#3 + 420 x(4)#4 + 930 x(5)#5
     + 898 x(6)#6 + 652 x(7)#7 + 686 x(8)#8 + 161 x(9)#9 + 925 x(10)#10
     + 774 x(11)#11 + 23 x(12)#12 + 123 x(13)#13 + 982 x(14)#14 + 81 x(15)#15
     + 522 x(16)#16 + 964 x(17)#17 + 423 x(18)#18 + 211 x(19)#19 + 164 x(20)#20
     + 312 x(21)#21 + 667 x(22)#22 + 867 x(23)#23 + 381 x(24)#24 + 755 x(25)#25
     + 293 x(26)#26 + 30 x(27)#27 + 308 x(28)#28 + 749 x(29)#29 + 828 x(30)#30
     + 655 x(31)#31 + 487 x(32)#32 + 386 x(33)#33 + 833 x(34)#34 + 568 x(35)#35
     + 997 x(36)#36 + 730 x(37)#37 + 941 x(38)#38 + 995 x(39)#39 + 213 x(40)#40
     + 477 x(41)#41 + 914 x(42)#42 + 975 x(43)#43 + 242 x(44)#44 + 852 x(45)#45
     + 616 x(46)#46 + 83 x(47)#47 + 885 x(48)#48 + 824 x(49)#49 + 396 x(50)#50
     + 331 x(51)#51 + 49 x(52)#52 + 484 x(53)#53 + 432 x(54)#54 + 622 x(55)#55
     + 572 x(56)#56 + 705 x(57)#57 + 749 x(58)#58 + 116 x(59)#59 + 922 x(60)#60
     + 525 x(61)#61 + 977 x(62)#62 + 759 x(63)#63 + 929 x(64)#64 + 626 x(65)#65
     + 440 x(66)#66 + 433 x(67)#67 + 437 x(68)#68 + 456 x(69)#69 + 555 x(70)#70
     + 527 x(71)#71 + 169 x(72)#72 + 210 x(73)#73 + 203 x(74)#74 + 376 x(75)#75
     + 82 x(76)#76 + 209 x(77)#77 + 813 x(78)#78 + 728 x(79)#79 + 644 x(80)#80
     + 443 x(81)#81 + 539 x(82)#82 + 978 x(83)#83 + 176 x(84)#84 + 257 x(85)#85
     + 173 x(86)#86 + 737 x(87)#87 + 852 x(88)#88 + 211 x(89)#89 + 644 x(90)#90
     + 310 x(91)#91 + 145 x(92)#92 + 292 x(93)#93 + 579 x(94)#94 + 807 x(95)#95
     + 371 x(96)#96 + 518 x(97)#97 + 564 x(98)#98 + 3 x(99)#99 <= 26279
 c5: 851 x(0)#0 + 123 x(1)#1 + 966 x(2)#2 + 976 x(3)#3 + 668 x(4)#4
     + 128 x(5)#5 + 927 x(6)#6 + 929 x(7)#7 + 215 x(8)#8 + 162 x(9)#9
     + 347 x(10)#10 + 344 x(11)#11 + 374 x(12)#12 + 901 x(13)#13 + 674 x(14)#14
     + 991 x(15)#15 + 515 x(16)#16 + 129 x(17)#17 + 563 x(18)#18 + 558 x(19)#19
     + 838 x(20)#20 + 635 x(21)#21 + 371 x(22)#22 + 220 x(23)#23 + 121 x(24)#24
     + 652 x(25)#25 + 243 x(26)#26 + 966 x(27)#27 + 508 x(28)#28 + 44 x(29)#29
     + 132 x(30)#30 + 232 x(31)#31 + 367 x(32)#32 + 476 x(33)#33 + 524 x(34)#34
     + 607 x(35)#35 + 827 x(36)#36 + 414 x(37)#37 + 894 x(38)#38 + 202 x(39)#39
     + 791 x(40)#40 + 174 x(41)#41 + 123 x(42)#42 + 404 x(43)#43 + 356 x(44)#44
     + 85 x(45)#45 + 602 x(46)#46 + 202 x(47)#47 + 119 x(48)#48 + 89 x(49)#49
     + 400 x(50)#50 + 804 x(51)#51 + 313 x(52)#52 + 214 x(53)#53 + 456 x(54)#54
     + 910 x(55)#55 + 849 x(56)#56 + 931 x(57)#57 + 169 x(58)#58 + 708 x(59)#59
     + 436 x(60)#60 + 836 x(61)#61 + 818 x(62)#62 + 759 x(63)#63 + 434 x(64)#64
     + 291 x(65)#65 + 942 x(66)#66 + 986 x(67)#67 + 328 x(68)#68 + 366 x(69)#69
     + 424 x(70)#70 + 987 x(71)#71 + 820 x(72)#72 + 974 x(73)#73 + 405 x(74)#74
     + 146 x(75)#75 + 269 x(76)#76 + 68 x(77)#77 + 331 x(78)#78 + 595 x(79)#79
     + 830 x(80)#80 + 164 x(81)#81 + 773 x(82)#82 + 427 x(83)#83 + 694 x(84)#84
     + 71 x(85)#85 + 244 x(86)#86 + 669 x(87)#87 + 41 x(88)#88 + 490 x(89)#89
     + 685 x(90)#90 + 113 x(91)#91 + 884 x(92)#92 + 104 x(93)#93 + 269 x(94)#94
     + 217 x(95)#95 + 51 x(96)#96 + 72 x(97)#97 + 756 x(98)#98 + 59 x(99)#99
     <= 24071
Bounds
 0 <= x(0)#0 <= 1
 0 <= x(1)#1 <= 1
 0 <= x(2)#2 <= 1
 0 <= x(3)#3 <= 1
 0 <= x(4)#4 <= 1
 0 <= x(5)#5 <= 1
 0 <= x(6)#6 <= 1
 0 <= x(7)#7 <= 1
 0 <= x(8)#8 <= 1
 0 <= x(9)#9 <= 1
 0 <= x(10)#10 <= 1
 0 <= x(11)#11 <= 1
 0 <= x(12)#12 <= 1
 0 <= x(13)#13 <= 1
 0 <= x(14)#14 <= 1
 0 <= x(15)#15 <= 1
 0 <= x(16)#16 <= 1
 0 <= x(17)#17 <= 1
 0 <= x(18)#18 <= 1
 0 <= x(19)#19 <= 1
 0 <= x(20)#20 <= 1
 0 <= x(21)#21 <= 1
 0 <= x(22)#22 <= 1
 0 <= x(23)#23 <= 1
 0 <= x(24)#24 <= 1
 0 <= x(25)#25 <= 1
 0 <= x(26)#26 <= 1
 0 <= x(27)#27 <= 1
 0 <= x(28)#28 <= 1
 0 <= x(29)#29 <= 1
 0 <= x(30)#30 <= 1
 0 <= x(31)#31 <= 1
 0 <= x(32)#32 <= 1
 0 <= x(33)#33 <= 1
 0 <= x(34)#34 <= 1
 0 <= x(35)#35 <= 1
 0 <= x(36)#36 <= 1
 0 <= x(37)#37 <= 1
 0 <= x(38)#38 <= 1
 0 <= x(39)#39 <= 1
 0 <= x(40)#40 <= 1
 0 <= x(41)#41 <= 1
 0 <= x(42)#42 <= 1
 0 <= x(43)#43 <= 1
 0 <= x(44)#44 <= 1
 0 <= x(45)#45 <= 1
 0 <= x(46)#46 <= 1
 0 <= x(47)#47 <= 1
 0 <= x(48)#48 <= 1
 0 <= x(49)#49 <= 1
 0 <= x(50)#50 <= 1
 0 <= x(51)#51 <= 1
 0 <= x(52)#52 <= 1
 0 <= x(53)#53 <= 1
 0 <= x(54)#54 <= 1
 0 <= x(55)#55 <= 1
 0 <= x(56)#56 <= 1
 0 <= x(57)#57 <= 1
 0 <= x(58)#58 <= 1
 0 <= x(59)#59 <= 1
 0 <= x(60)#60 <= 1
 0 <= x(61)#61 <= 1
 0 <= x(62)#62 <= 1
 0 <= x(63)#63 <= 1
 0 <= x(64)#64 <= 1
 0 <= x(65)#65 <= 1
 0 <= x(66)#66 <= 1
 0 <= x(67)#67 <= 1
 0 <= x(68)#68 <= 1
 0 <= x(69)#69 <= 1
 0 <= x(70)#70 <= 1
 0 <= x(71)#71 <= 1
 0 <= x(72)#72 <= 1
 0 <= x(73)#73 <= 1
 0 <= x(74)#74 <= 1
 0 <= x(75)#75 <= 1
 0 <= x(76)#76 <= 1
 0 <= x(77)#77 <= 1
 0 <= x(78)#78 <= 1
 0 <= x(79)#79 <= 1
 0 <= x(80)#80 <= 1
 0 <= x(81)#81 <= 1
 0 <= x(82)#82 <= 1
 0 <= x(83)#83 <= 1
 0 <= x(84)#84 <= 1
 0 <= x(85)#85 <= 1
 0 <= x(86)#86 <= 1
 0 <= x(87)#87 <= 1
 0 <= x(88)#88 <= 1
 0 <= x(89)#89 <= 1
 0 <= x(90)#90 <= 1
 0 <= x(91)#91 <= 1
 0 <= x(92)#92 <= 1
 0 <= x(93)#93 <= 1
 0 <= x(94)#94 <= 1
 0 <= x(95)#95 <= 1
 0 <= x(96)#96 <= 1
 0 <= x(97)#97 <= 1
 0 <= x(98)#98 <= 1
 0 <= x(99)#99 <= 1
Generals
 x(0)#0  x(1)#1  x(2)#2  x(3)#3  x(4)#4  x(5)#5  x(6)#6  x(7)#7  x(8)#8 
 x(9)#9  x(10)#10  x(11)#11  x(12)#12  x(13)#13  x(14)#14  x(15)#15  x(16)#16 
 x(17)#17  x(18)#18  x(19)#19  x(20)#20  x(21)#21  x(22)#22  x(23)#23 
 x(24)#24  x(25)#25  x(26)#26  x(27)#27  x(28)#28  x(29)#29  x(30)#30 
 x(31)#31  x(32)#32  x(33)#33  x(34)#34  x(35)#35  x(36)#36  x(37)#37 
 x(38)#38  x(39)#39  x(40)#40  x(41)#41  x(42)#42  x(43)#43  x(44)#44 
 x(45)#45  x(46)#46  x(47)#47  x(48)#48  x(49)#49  x(50)#50  x(51)#51 
 x(52)#52  x(53)#53  x(54)#54  x(55)#55  x(56)#56  x(57)#57  x(58)#58 
 x(59)#59  x(60)#60  x(61)#61  x(62)#62  x(63)#63  x(64)#64  x(65)#65 
 x(66)#66  x(67)#67  x(68)#68  x(69)#69  x(70)#70  x(71)#71  x(72)#72 
 x(73)#73  x(74)#74  x(75)#75  x(76)#76  x(77)#77  x(78)#78  x(79)#79 
 x(80)#80  x(81)#81  x(82)#82  x(83)#83  x(84)#84  x(85)#85  x(86)#86 
 x(87)#87  x(88)#88  x(89)#89  x(90)#90  x(91)#91  x(92)#92  x(93)#93 
 x(94)#94  x(95)#95  x(96)#96  x(97)#97  x(98)#98  x(99)#99 
End
